Minimize

x_0_0


Subject To

a0: x_0_0 + x_1_0 + x_2_0 + x_3_0 + x_4_0 + x_5_0 + x_6_0 + x_7_0 + x_8_0 + x_9_0 = 1
a1: x_0_1 + x_1_1 + x_2_1 + x_3_1 + x_4_1 + x_5_1 + x_6_1 + x_7_1 + x_8_1 + x_9_1 = 1
a2: x_0_2 + x_1_2 + x_2_2 + x_3_2 + x_4_2 + x_5_2 + x_6_2 + x_7_2 + x_8_2 + x_9_2 = 1
a3: x_0_3 + x_1_3 + x_2_3 + x_3_3 + x_4_3 + x_5_3 + x_6_3 + x_7_3 + x_8_3 + x_9_3 = 1
a4: x_0_4 + x_1_4 + x_2_4 + x_3_4 + x_4_4 + x_5_4 + x_6_4 + x_7_4 + x_8_4 + x_9_4 = 1
a5: x_0_5 + x_1_5 + x_2_5 + x_3_5 + x_4_5 + x_5_5 + x_6_5 + x_7_5 + x_8_5 + x_9_5 = 1
a6: x_0_6 + x_1_6 + x_2_6 + x_3_6 + x_4_6 + x_5_6 + x_6_6 + x_7_6 + x_8_6 + x_9_6 = 1
a7: x_0_7 + x_1_7 + x_2_7 + x_3_7 + x_4_7 + x_5_7 + x_6_7 + x_7_7 + x_8_7 + x_9_7 = 1
a8: x_0_8 + x_1_8 + x_2_8 + x_3_8 + x_4_8 + x_5_8 + x_6_8 + x_7_8 + x_8_8 + x_9_8 = 1
a9: x_0_9 + x_1_9 + x_2_9 + x_3_9 + x_4_9 + x_5_9 + x_6_9 + x_7_9 + x_8_9 + x_9_9 = 1
b0: x_0_0 + x_0_1 + x_0_2 + x_0_3 + x_0_4 + x_0_5 + x_0_6 + x_0_7 + x_0_8 + x_0_9 = 1
b1: x_1_0 + x_1_1 + x_1_2 + x_1_3 + x_1_4 + x_1_5 + x_1_6 + x_1_7 + x_1_8 + x_1_9 = 1
b2: x_2_0 + x_2_1 + x_2_2 + x_2_3 + x_2_4 + x_2_5 + x_2_6 + x_2_7 + x_2_8 + x_2_9 = 1
b3: x_3_0 + x_3_1 + x_3_2 + x_3_3 + x_3_4 + x_3_5 + x_3_6 + x_3_7 + x_3_8 + x_3_9 = 1
b4: x_4_0 + x_4_1 + x_4_2 + x_4_3 + x_4_4 + x_4_5 + x_4_6 + x_4_7 + x_4_8 + x_4_9 = 1
b5: x_5_0 + x_5_1 + x_5_2 + x_5_3 + x_5_4 + x_5_5 + x_5_6 + x_5_7 + x_5_8 + x_5_9 = 1
b6: x_6_0 + x_6_1 + x_6_2 + x_6_3 + x_6_4 + x_6_5 + x_6_6 + x_6_7 + x_6_8 + x_6_9 = 1
b7: x_7_0 + x_7_1 + x_7_2 + x_7_3 + x_7_4 + x_7_5 + x_7_6 + x_7_7 + x_7_8 + x_7_9 = 1
b8: x_8_0 + x_8_1 + x_8_2 + x_8_3 + x_8_4 + x_8_5 + x_8_6 + x_8_7 + x_8_8 + x_8_9 = 1
b9: x_9_0 + x_9_1 + x_9_2 + x_9_3 + x_9_4 + x_9_5 + x_9_6 + x_9_7 + x_9_8 + x_9_9 = 1
c0: x_9_0 <= 1
c1: x_8_0 + x_9_1 <= 1
c2: x_7_0 + x_8_1 + x_9_2 <= 1
c3: x_6_0 + x_7_1 + x_8_2 + x_9_3 <= 1
c4: x_5_0 + x_6_1 + x_7_2 + x_8_3 + x_9_4 <= 1
c5: x_4_0 + x_5_1 + x_6_2 + x_7_3 + x_8_4 + x_9_5 <= 1
c6: x_3_0 + x_4_1 + x_5_2 + x_6_3 + x_7_4 + x_8_5 + x_9_6 <= 1
c7: x_2_0 + x_3_1 + x_4_2 + x_5_3 + x_6_4 + x_7_5 + x_8_6 + x_9_7 <= 1
c8: x_1_0 + x_2_1 + x_3_2 + x_4_3 + x_5_4 + x_6_5 + x_7_6 + x_8_7 + x_9_8 <= 1
c9: x_0_0 + x_1_1 + x_2_2 + x_3_3 + x_4_4 + x_5_5 + x_6_6 + x_7_7 + x_8_8 + x_9_9 <= 1
c10: x_0_1 + x_1_2 + x_2_3 + x_3_4 + x_4_5 + x_5_6 + x_6_7 + x_7_8 + x_8_9 <= 1
c11: x_0_2 + x_1_3 + x_2_4 + x_3_5 + x_4_6 + x_5_7 + x_6_8 + x_7_9 <= 1
c12: x_0_3 + x_1_4 + x_2_5 + x_3_6 + x_4_7 + x_5_8 + x_6_9 <= 1
c13: x_0_4 + x_1_5 + x_2_6 + x_3_7 + x_4_8 + x_5_9 <= 1
c14: x_0_5 + x_1_6 + x_2_7 + x_3_8 + x_4_9 <= 1
c15: x_0_6 + x_1_7 + x_2_8 + x_3_9 <= 1
c16: x_0_7 + x_1_8 + x_2_9 <= 1
c17: x_0_8 + x_1_9 <= 1
c18: x_0_9 <= 1
d0: x_0_0 <= 1
d1: x_0_1 + x_1_0 <= 1
d2: x_0_2 + x_1_1 + x_2_0 <= 1
d3: x_0_3 + x_1_2 + x_2_1 + x_3_0 <= 1
d4: x_0_4 + x_1_3 + x_2_2 + x_3_1 + x_4_0 <= 1
d5: x_0_5 + x_1_4 + x_2_3 + x_3_2 + x_4_1 + x_5_0 <= 1
d6: x_0_6 + x_1_5 + x_2_4 + x_3_3 + x_4_2 + x_5_1 + x_6_0 <= 1
d7: x_0_7 + x_1_6 + x_2_5 + x_3_4 + x_4_3 + x_5_2 + x_6_1 + x_7_0 <= 1
d8: x_0_8 + x_1_7 + x_2_6 + x_3_5 + x_4_4 + x_5_3 + x_6_2 + x_7_1 + x_8_0 <= 1
d9: x_0_9 + x_1_8 + x_2_7 + x_3_6 + x_4_5 + x_5_4 + x_6_3 + x_7_2 + x_8_1 + x_9_0 <= 1
d10: x_1_9 + x_2_8 + x_3_7 + x_4_6 + x_5_5 + x_6_4 + x_7_3 + x_8_2 + x_9_1 <= 1
d11: x_2_9 + x_3_8 + x_4_7 + x_5_6 + x_6_5 + x_7_4 + x_8_3 + x_9_2 <= 1
d12: x_3_9 + x_4_8 + x_5_7 + x_6_6 + x_7_5 + x_8_4 + x_9_3 <= 1
d13: x_4_9 + x_5_8 + x_6_7 + x_7_6 + x_8_5 + x_9_4 <= 1
d14: x_5_9 + x_6_8 + x_7_7 + x_8_6 + x_9_5 <= 1
d15: x_6_9 + x_7_8 + x_8_7 + x_9_6 <= 1
d16: x_7_9 + x_8_8 + x_9_7 <= 1
d17: x_8_9 + x_9_8 <= 1
d18: x_9_9 <= 1




Binary

x_0_0 x_0_1 x_0_2 x_0_3 x_0_4 x_0_5 x_0_6 x_0_7 x_0_8 x_0_9 x_1_0 x_1_1 x_1_2 x_1_3 x_1_4 x_1_5 x_1_6 x_1_7 x_1_8 x_1_9 x_2_0 x_2_1 x_2_2 x_2_3 x_2_4 x_2_5 x_2_6 x_2_7 x_2_8 x_2_9 x_3_0 x_3_1 x_3_2 x_3_3 x_3_4 x_3_5 x_3_6 x_3_7 x_3_8 x_3_9 x_4_0 x_4_1 x_4_2 x_4_3 x_4_4 x_4_5 x_4_6 x_4_7 x_4_8 x_4_9 x_5_0 x_5_1 x_5_2 x_5_3 x_5_4 x_5_5 x_5_6 x_5_7 x_5_8 x_5_9 x_6_0 x_6_1 x_6_2 x_6_3 x_6_4 x_6_5 x_6_6 x_6_7 x_6_8 x_6_9 x_7_0 x_7_1 x_7_2 x_7_3 x_7_4 x_7_5 x_7_6 x_7_7 x_7_8 x_7_9 x_8_0 x_8_1 x_8_2 x_8_3 x_8_4 x_8_5 x_8_6 x_8_7 x_8_8 x_8_9 x_9_0 x_9_1 x_9_2 x_9_3 x_9_4 x_9_5 x_9_6 x_9_7 x_9_8 x_9_9

 


End
